CSW01
Position Depot: Center
Horizon for Depot: Small
Position of customers: Cluster
Distribution of the demand: Medium
Width of time windows: Wide
Distribution of the service: Large

VEHICLE 
NUMBER 	 CAPACITY 
 12 	 	 108 
 
CUSTOMER
CUST NO. 	 XCOORD.  	 YCOORD. 	 DEMAND 	 READY TIME 	 DUE DATE 	 SERVICE TIME 
 0 	 	 500 	 	 500 	 	 0 	 	 0 	 	 2225 	 	 0 
  1 	 	 264 	 	 482 	 	 9 	 	 994 	 	 1302 	 	 118 
  2 	 	 716 	 	 577 	 	 9 	 	 1810 	 	 2046 	 	 158 
  3 	 	 260 	 	 781 	 	 9 	 	 1913 	 	 2225 	 	 188 
  4 	 	 315 	 	 700 	 	 67 	 	 130 	 	 362 	 	 109 
  5 	 	 283 	 	 408 	 	 9 	 	 726 	 	 1042 	 	 128 
  6 	 	 379 	 	 885 	 	 3 	 	 2013 	 	 2225 	 	 123 
  7 	 	 230 	 	 649 	 	 95 	 	 1375 	 	 1774 	 	 139 
  8 	 	 745 	 	 618 	 	 5 	 	 1900 	 	 2225 	 	 132 
  9 	 	 261 	 	 780 	 	 4 	 	 1837 	 	 2050 	 	 167 
  10 	 	 323 	 	 710 	 	 4 	 	 1143 	 	 1448 	 	 148 
  11 	 	 195 	 	 434 	 	 9 	 	 1700 	 	 2164 	 	 192 
  12 	 	 334 	 	 383 	 	 10 	 	 120 	 	 360 	 	 139 
  13 	 	 231 	 	 717 	 	 1 	 	 1579 	 	 1833 	 	 108 
  14 	 	 318 	 	 507 	 	 8 	 	 130 	 	 384 	 	 196 
  15 	 	 813 	 	 662 	 	 3 	 	 1500 	 	 1747 	 	 179 
  16 	 	 314 	 	 477 	 	 10 	 	 1039 	 	 1268 	 	 156 
  17 	 	 734 	 	 536 	 	 10 	 	 1768 	 	 2043 	 	 174 
  18 	 	 209 	 	 838 	 	 4 	 	 281 	 	 508 	 	 159 
  19 	 	 214 	 	 541 	 	 10 	 	 834 	 	 1177 	 	 196 
  20 	 	 188 	 	 485 	 	 7 	 	 1457 	 	 1741 	 	 189 
  21 	 	 764 	 	 607 	 	 9 	 	 195 	 	 572 	 	 193 
  22 	 	 169 	 	 677 	 	 67 	 	 1373 	 	 1693 	 	 189 
  23 	 	 790 	 	 747 	 	 8 	 	 129 	 	 419 	 	 192 
  24 	 	 746 	 	 593 	 	 52 	 	 323 	 	 585 	 	 200 
  25 	 	 663 	 	 547 	 	 2 	 	 1219 	 	 1454 	 	 193 
  26 	 	 203 	 	 857 	 	 3 	 	 554 	 	 769 	 	 148 
  27 	 	 777 	 	 560 	 	 4 	 	 1899 	 	 2225 	 	 167 
  28 	 	 748 	 	 576 	 	 9 	 	 1353 	 	 1553 	 	 113 
  29 	 	 628 	 	 545 	 	 8 	 	 807 	 	 1096 	 	 186 
  30 	 	 278 	 	 757 	 	 7 	 	 1367 	 	 1585 	 	 125 
  31 	 	 743 	 	 519 	 	 3 	 	 1252 	 	 1648 	 	 138 
  32 	 	 721 	 	 560 	 	 9 	 	 1228 	 	 1565 	 	 186 
  33 	 	 807 	 	 457 	 	 9 	 	 993 	 	 1448 	 	 129 
  34 	 	 109 	 	 505 	 	 98 	 	 -42 	 	 450 	 	 123 
  35 	 	 322 	 	 710 	 	 4 	 	 127 	 	 454 	 	 182 
  36 	 	 306 	 	 524 	 	 2 	 	 1546 	 	 1771 	 	 143 
  37 	 	 291 	 	 504 	 	 5 	 	 559 	 	 898 	 	 143 
  38 	 	 277 	 	 797 	 	 7 	 	 942 	 	 1162 	 	 154 
  39 	 	 756 	 	 687 	 	 99 	 	 1635 	 	 1874 	 	 167 
  40 	 	 237 	 	 481 	 	 50 	 	 1346 	 	 1735 	 	 106 
  41 	 	 150 	 	 461 	 	 7 	 	 355 	 	 840 	 	 115 
  42 	 	 381 	 	 579 	 	 10 	 	 1767 	 	 2188 	 	 109 
  43 	 	 254 	 	 398 	 	 66 	 	 779 	 	 983 	 	 120 
  44 	 	 789 	 	 625 	 	 98 	 	 356 	 	 799 	 	 103 
  45 	 	 442 	 	 448 	 	 10 	 	 1331 	 	 1659 	 	 147 
  46 	 	 804 	 	 544 	 	 5 	 	 1566 	 	 1846 	 	 151 
  47 	 	 182 	 	 944 	 	 8 	 	 1398 	 	 1874 	 	 195 
  48 	 	 669 	 	 722 	 	 3 	 	 69 	 	 353 	 	 180 
  49 	 	 244 	 	 818 	 	 7 	 	 722 	 	 1190 	 	 164 
  50 	 	 572 	 	 713 	 	 10 	 	 1123 	 	 1606 	 	 163 
 